09-routing/solutions/XSH-n20-k4-33.opt.sol
Route #1: 5 4 7 2
Route #2: 3 12 15 14 10
Route #3: 8 6 11 18 16
Route #4: 17 13 20 19 1 9
Cost 568
